n=214;
k_min=7;
k_max=7;
M=[| 138, 161, 146, 126, 146, 133, 146
 | 134, 166, 148, 125, 151, 128, 145
 | 134, 166, 147, 125, 152, 129, 143
 | 136, 164, 146, 126, 149, 131, 143
 | 135, 164, 146, 126, 152, 131, 143
 | 136, 164, 146, 128, 150, 132, 141
 | 136, 163, 146, 126, 151, 131, 143
 | 136, 163, 145, 126, 152, 132, 142
 | 135, 166, 147, 125, 148, 129, 147
 | 137, 165, 145, 126, 150, 132, 142
 | 136, 164, 145, 127, 151, 132, 141
 | 137, 165, 144, 126, 149, 133, 141
 | 136, 164, 145, 127, 152, 132, 141
 | 137, 164, 144, 126, 151, 133, 141
 | 137, 164, 144, 127, 150, 134, 141
 | 137, 164, 144, 126, 151, 133, 141
 | 138, 165, 143, 126, 149, 134, 141
 | 138, 161, 144, 124, 148, 132, 149
 | 138, 163, 144, 124, 148, 132, 147
 | 137, 164, 145, 126, 149, 133, 143
 | 137, 164, 145, 126, 149, 133, 142
 | 139, 159, 144, 124, 149, 132, 149
 | 138, 165, 144, 126, 148, 134, 142
 | 137, 165, 144, 126, 150, 133, 141
 | 137, 165, 145, 125, 151, 131, 143
 | 137, 164, 144, 126, 150, 133, 142
 | 137, 164, 145, 126, 149, 132, 143
 | 137, 165, 144, 126, 150, 133, 142
 | 138, 164, 144, 127, 150, 134, 141
 | 137, 165, 145, 126, 150, 132, 142
 | 138, 165, 143, 126, 149, 134, 141
 | 138, 164, 143, 126, 151, 134, 141
 | 137, 164, 144, 126, 150, 133, 142
 | 138, 164, 143, 127, 151, 134, 140
 | 138, 166, 143, 126, 149, 134, 141
 | 137, 165, 144, 125, 150, 132, 143
 | 136, 166, 145, 124, 147, 130, 147
 | 138, 165, 143, 126, 149, 134, 141
 | 140, 163, 141, 123, 148, 134, 147
 | 140, 163, 141, 123, 148, 134, 147
 | 138, 165, 143, 126, 149, 134, 141
 | 138, 164, 143, 126, 150, 134, 141
 | 137, 164, 144, 125, 150, 132, 143
 | 140, 166, 140, 122, 147, 135, 146
 | 138, 164, 143, 126, 149, 135, 141
 | 138, 163, 144, 125, 147, 133, 146
 | 138, 164, 143, 125, 149, 134, 143
 | 141, 164, 140, 122, 148, 135, 147
 | 142, 163, 139, 123, 147, 138, 144
 | 138, 164, 144, 125, 148, 132, 146
 | 142, 164, 139, 122, 148, 136, 146
 | 139, 164, 142, 125, 148, 135, 144
 | 140, 162, 142, 124, 150, 134, 144
 | 141, 162, 141, 125, 150, 135, 143
 | 140, 161, 141, 125, 151, 135, 143
 | 141, 160, 140, 126, 151, 138, 140
 | 137, 163, 145, 126, 150, 133, 142
 | 137, 165, 144, 126, 150, 133, 142
 | 135, 163, 147, 126, 151, 130, 143
 | 136, 164, 146, 126, 150, 131, 143
 | 138, 163, 144, 124, 150, 133, 145
 | 137, 162, 147, 124, 147, 131, 149
 | 140, 164, 142, 124, 147, 135, 145
 | 140, 163, 141, 123, 148, 134, 148
 | 141, 164, 141, 123, 147, 135, 145
 | 140, 163, 142, 123, 148, 134, 146
 | 142, 162, 140, 124, 147, 138, 144
 | 142, 161, 140, 124, 147, 138, 143
 | 142, 162, 140, 124, 148, 138, 144
 | 143, 162, 138, 122, 148, 138, 144
 | 133, 159, 152, 128, 149, 127, 149
 | 136, 163, 148, 127, 147, 131, 146
 | 134, 166, 147, 127, 151, 130, 141
 | 134, 164, 147, 127, 151, 130, 143
 | 134, 166, 147, 127, 151, 130, 141
 | 135, 165, 146, 127, 151, 131, 141
 | 135, 163, 148, 127, 149, 130, 144
 | 135, 164, 147, 127, 150, 131, 142
 | 134, 165, 147, 125, 152, 129, 145
 | 135, 163, 147, 128, 150, 131, 142
 | 135, 162, 148, 129, 149, 132, 142
 | 135, 165, 147, 127, 152, 130, 142
 | 135, 163, 147, 127, 151, 130, 143
 | 135, 164, 147, 127, 150, 131, 142
 | 132, 158, 153, 131, 150, 126, 146
 | 136, 163, 146, 126, 150, 131, 144
 | 135, 164, 146, 126, 153, 131, 142
 | 135, 163, 147, 127, 150, 130, 144
 | 136, 165, 146, 127, 150, 131, 142
 | 136, 163, 146, 128, 151, 133, 140
 | 139, 162, 144, 127, 147, 135, 144
 | 136, 166, 145, 126, 151, 132, 141
 | 137, 163, 144, 125, 152, 133, 142
 | 136, 164, 145, 125, 152, 131, 142
 | 136, 164, 144, 127, 151, 133, 141
 | 137, 164, 145, 125, 148, 132, 145
 | 139, 163, 143, 126, 147, 135, 144
 | 140, 162, 141, 127, 150, 137, 139
 | 138, 162, 143, 127, 151, 135, 141
 | 139, 162, 143, 125, 150, 134, 142
 | 140, 162, 142, 126, 151, 135, 141
 | 142, 160, 140, 127, 148, 139, 140
 | 143, 159, 139, 125, 151, 139, 140
 | 148, 155, 135, 124, 147, 143, 145
 | 146, 158, 135, 121, 150, 140, 146
 | 156, 147, 125, 126, 143, 166, 133
 | 149, 146, 134, 133, 142, 152, 140
 | 153, 144, 131, 131, 144, 154, 139
 | 158, 150, 127, 121, 155, 146, 141
 | 153, 149, 131, 125, 153, 146, 139
 | 155, 146, 129, 128, 144, 158, 136
 | 154, 145, 130, 129, 144, 158, 136
 | 157, 145, 127, 126, 145, 157, 137
 | 135, 163, 147, 126, 149, 131, 144
 | 136, 164, 146, 127, 148, 132, 143
 | 136, 163, 147, 127, 149, 131, 145
 | 136, 163, 147, 127, 148, 132, 144
 | 134, 162, 150, 128, 148, 129, 146
 | 135, 162, 148, 127, 150, 130, 144
 | 134, 163, 148, 127, 150, 129, 145
 | 136, 164, 146, 126, 148, 132, 144
 | 135, 164, 146, 127, 150, 131, 142
 | 135, 164, 147, 126, 151, 131, 143
 | 135, 163, 148, 127, 150, 130, 144
 | 137, 166, 145, 125, 149, 132, 143
 | 137, 163, 145, 127, 148, 133, 143
 | 137, 165, 144, 126, 149, 133, 142
 | 143, 166, 135, 119, 153, 135, 144
 | 143, 162, 137, 121, 153, 136, 145
 | 150, 158, 130, 119, 156, 140, 144
 | 155, 155, 127, 118, 155, 145, 141
 | 160, 146, 126, 124, 147, 154, 139
 | 135, 163, 147, 127, 149, 131, 144
 | 135, 163, 149, 127, 147, 130, 146
 | 135, 164, 147, 126, 150, 131, 143
 | 136, 163, 146, 127, 148, 132, 144
 | 137, 164, 145, 126, 150, 133, 142
 | 136, 164, 146, 127, 150, 132, 142
 | 135, 164, 146, 128, 152, 131, 141
 | 135, 165, 146, 127, 151, 131, 141
 | 135, 163, 147, 127, 150, 130, 144
 | 136, 165, 145, 126, 150, 132, 143
 | 136, 164, 145, 127, 150, 132, 142
 | 136, 163, 146, 127, 150, 132, 142
 | 139, 163, 143, 125, 150, 134, 142
 | 138, 163, 144, 127, 148, 134, 143
 | 138, 163, 145, 124, 151, 132, 145
 | 136, 164, 146, 126, 150, 131, 144
 | 136, 165, 145, 126, 150, 132, 143
 | 138, 163, 144, 128, 148, 135, 140
 | 137, 162, 146, 127, 149, 132, 144
 | 139, 162, 142, 123, 148, 133, 148
 | 139, 161, 143, 124, 151, 134, 144
 | 136, 164, 146, 126, 150, 131, 144
 | 138, 164, 144, 126, 148, 134, 142
 | 138, 164, 144, 125, 151, 133, 142
 | 137, 164, 144, 125, 150, 132, 144
 | 140, 164, 141, 122, 148, 134, 147
 | 138, 164, 145, 125, 147, 132, 146
 | 138, 163, 145, 126, 147, 132, 146
 | 139, 164, 143, 125, 148, 133, 145
 | 139, 162, 144, 124, 150, 133, 145
 | 138, 161, 144, 124, 147, 132, 149
 | 132, 146, 157, 141, 143, 128, 148
 | 147, 160, 134, 123, 151, 142, 139
 | 151, 154, 131, 125, 146, 152, 136
 | 151, 152, 132, 127, 145, 153, 136
 | 156, 151, 128, 124, 150, 153, 136
 | 150, 153, 131, 127, 154, 145, 136
 | 158, 151, 126, 122, 152, 150, 137
 | 164, 148, 124, 120, 150, 153, 137
 | 135, 142, 143, 166, 139, 134, 139
 | 135, 142, 143, 165, 139, 134, 139
 | 166, 147, 123, 120, 149, 154, 136
 | 144, 166, 135, 123, 150, 139, 140
 | 156, 152, 128, 122, 152, 150, 137
 | 143, 162, 138, 120, 154, 135, 146
 | 144, 160, 137, 120, 154, 137, 144
 | 141, 159, 139, 121, 156, 132, 148
 | 142, 160, 139, 121, 155, 134, 146
 | 137, 153, 143, 126, 166, 130, 142
 | 146, 153, 132, 119, 166, 135, 146
 | 155, 151, 128, 121, 157, 145, 140
 | 154, 149, 129, 122, 155, 145, 141
 | 140, 146, 143, 134, 153, 134, 145
 | 130, 153, 158, 137, 149, 126, 144
 | 129, 150, 166, 136, 144, 124, 148
 | 138, 166, 144, 124, 148, 132, 144
 | 141, 154, 140, 127, 150, 133, 152
 | 136, 148, 145, 126, 148, 127, 166
 | 141, 155, 142, 124, 154, 134, 146
 | 143, 149, 138, 126, 161, 134, 145
 | 143, 150, 135, 125, 166, 136, 141
 | 140, 148, 139, 125, 166, 132, 147
 | 141, 148, 139, 125, 164, 133, 146
 | 143, 151, 135, 125, 165, 136, 142
 | 145, 152, 134, 124, 162, 138, 141
 | 143, 150, 137, 125, 162, 135, 145
 | 143, 151, 136, 125, 163, 135, 143
 | 143, 149, 138, 126, 161, 134, 146
 | 141, 148, 140, 128, 160, 133, 146
 | 144, 148, 138, 139, 149, 143, 137
 | 142, 149, 139, 128, 161, 134, 144
 | 140, 147, 140, 126, 165, 132, 147
 | 143, 149, 138, 126, 161, 134, 146
 | 141, 147, 139, 125, 164, 132, 148
 | 141, 148, 138, 125, 164, 133, 147
 | 135, 144, 149, 138, 153, 130, 147
 | 145, 151, 134, 124, 162, 137, 143
 | 144, 151, 136, 125, 160, 136, 144
 | 140, 147, 140, 126, 165, 132, 147
 | 141, 148, 139, 126, 163, 134, 145
 | 141, 148, 139, 126, 162, 134, 145
 | 141, 149, 139, 126, 163, 134, 145 |];
 P=[2, 2, 2, 2, 2, 2, 2, 2, 2, 2, 2, 2, 2, 2, 2, 2, 2, 2, 2, 2, 2, 2, 2, 2, 2, 2, 2, 2, 2, 2, 2, 2, 2, 2, 2, 2, 2, 2, 2, 2, 2, 2, 2, 2, 2, 2, 2, 2, 2, 2, 2, 2, 2, 2, 2, 2, 2, 2, 2, 2, 2, 2, 2, 2, 2, 2, 2, 2, 2, 2, 2, 2, 2, 2, 2, 2, 2, 2, 2, 2, 2, 2, 2, 2, 2, 2, 2, 2, 2, 2, 2, 2, 2, 2, 2, 2, 2, 2, 2, 2, 2, 2, 2, 2, 2, 6, 6, 6, 1, 1, 6, 6, 6, 2, 2, 2, 2, 2, 2, 2, 2, 2, 2, 2, 2, 2, 2, 2, 2, 2, 1, 6, 2, 2, 2, 2, 2, 2, 2, 2, 2, 2, 2, 2, 2, 2, 2, 2, 2, 2, 2, 2, 2, 2, 2, 2, 2, 2, 2, 2, 2, 2, 2, 3, 2, 1, 1, 1, 1, 1, 1, 4, 4, 1, 2, 1, 2, 2, 2, 2, 5, 5, 1, 1, 5, 3, 3, 2, 2, 7, 5, 5, 5, 5, 5, 5, 5, 5, 5, 5, 5, 1, 5, 5, 5, 5, 5, 5, 5, 5, 5, 5, 5, 5 ];